Problem:    lotti
Rows:       40
Columns:    42 (6 integer, 6 binary)
Non-zeros:  132
Status:     INTEGER OPTIMAL
Objective:  costiComplessivi = 12260 (MINimum)

   No.   Row name        Activity     Lower bound   Upper bound
------ ------------    ------------- ------------- -------------
     1 VincoloDomanda[1,1]
                                 -15           -15             = 
     2 VincoloDomanda[1,2]
                                 -25           -25             = 
     3 VincoloDomanda[1,3]
                                 -10           -10             = 
     4 VincoloDomanda[2,1]
                                 -15           -15             = 
     5 VincoloDomanda[2,2]
                                 -25           -25             = 
     6 VincoloDomanda[2,3]
                                  -5            -5             = 
     7 VincoloDomanda[3,1]
                                 -15           -15             = 
     8 VincoloDomanda[3,2]
                                 -35           -35             = 
     9 VincoloDomanda[3,3]
                                  -5            -5             = 
    10 VincoloDomanda[4,1]
                                 -15           -15             = 
    11 VincoloDomanda[4,2]
                                 -35           -35             = 
    12 VincoloDomanda[4,3]
                                  -5            -5             = 
    13 VincoloDomanda[5,1]
                                 -15           -15             = 
    14 VincoloDomanda[5,2]
                                 -25           -25             = 
    15 VincoloDomanda[5,3]
                                 -10           -10             = 
    16 No_rimanenze[1]
                                  15            15             = 
    17 No_rimanenze[2]
                                  25            25             = 
    18 No_rimanenze[3]
                                  15            15             = 
    19 StoccaggioIniziale[1]
                                   0            -0             = 
    20 StoccaggioIniziale[2]
                                   0            -0             = 
    21 StoccaggioIniziale[3]
                                   0            -0             = 
    22 VincoloProduzione[1,1]
                                 -60                          -0 
    23 VincoloProduzione[1,2]
                                 -15                          -0 
    24 VincoloProduzione[1,3]
                                 -40                          -0 
    25 VincoloProduzione[2,1]
                                 -45                          -0 
    26 VincoloProduzione[2,2]
                                   0                          -0 
    27 VincoloProduzione[2,3]
                                 -40                          -0 
    28 VincoloProduzione[3,1]
                                   0                          -0 
    29 VincoloProduzione[3,2]
                                   0                          -0 
    30 VincoloProduzione[3,3]
                                   0                          -0 
    31 VincoloProduzione[4,1]
                                 -60                          -0 
    32 VincoloProduzione[4,2]
                                 -20                          -0 
    33 VincoloProduzione[4,3]
                                 -35                          -0 
    34 VincoloProduzione[5,1]
                                 -50                          -0 
    35 VincoloProduzione[5,2]
                                 -10                          -0 
    36 VincoloProduzione[5,3]
                                 -25                          -0 
    37 VincoloProduzione[6,1]
                                   0                          -0 
    38 VincoloProduzione[6,2]
                                   0                          -0 
    39 VincoloProduzione[6,3]
                                   0                          -0 
    40 costiComplessivi
                               12260                             

   No. Column name       Activity     Lower bound   Upper bound
------ ------------    ------------- ------------- -------------
     1 x[1,1]                     15             0            75 
     2 x[2,1]                     35             0            50 
     3 x[3,1]                     10             0            50 
     4 x[1,2]                     30             0            75 
     5 x[2,2]                     50             0            50 
     6 x[3,2]                     10             0            50 
     7 x[1,3]                      0             0            75 
     8 x[2,3]                      0             0            55 
     9 x[3,3]                      0             0            40 
    10 x[1,4]                     15             0            75 
    11 x[2,4]                     35             0            55 
    12 x[3,4]                      5             0            40 
    13 x[1,5]                     30             0            80 
    14 x[2,5]                     50             0            60 
    15 x[3,5]                     25             0            50 
    16 x[1,6]                      0             0            80 
    17 x[2,6]                      0             0            65 
    18 x[3,6]                      0             0            50 
    19 y[1,2]                      0             0               
    20 y[1,1]                      0             0               
    21 y[2,2]                     10             0               
    22 y[2,1]                      0             0               
    23 y[3,2]                      0             0               
    24 y[3,1]                      0             0               
    25 y[1,3]                     15             0               
    26 y[2,3]                     35             0               
    27 y[3,3]                      5             0               
    28 y[1,4]                      0             0               
    29 y[2,4]                      0             0               
    30 y[3,4]                      0             0               
    31 y[1,5]                      0             0               
    32 y[2,5]                      0             0               
    33 y[3,5]                      0             0               
    34 y[1,6]                     15             0               
    35 y[2,6]                     25             0               
    36 y[3,6]                     15             0               
    37 z[1]         *              1             0             1 
    38 z[2]         *              1             0             1 
    39 z[3]         *              0             0             1 
    40 z[4]         *              1             0             1 
    41 z[5]         *              1             0             1 
    42 z[6]         *              0             0             1 

Integer feasibility conditions:

KKT.PE: max.abs.err = 1.82e-12 on row 40
        max.rel.err = 7.42e-17 on row 40
        High quality

KKT.PB: max.abs.err = 2.38e-13 on column 17
        max.rel.err = 2.38e-13 on column 17
        High quality

End of output
